log/Reading instance from file data/g02.dat
Number of nodes: 21
Number of edges: 65
initialize CPLEX ... done.
Calling CPLEX solve ...
Version identifier: 12.10.0.0 | 2019-11-26 | 843d4de
CPXPARAM_Threads                                 1
CPXPARAM_TimeLimit                               3600
CPXPARAM_WorkMem                                 8192
Tried aggregator 1 time.
MIP Presolve eliminated 281 rows and 260 columns.
MIP Presolve modified 556 coefficients.
Reduced MIP has 2594 rows, 2620 columns, and 11740 nonzeros.
Reduced MIP has 2620 binaries, 0 generals, 0 SOSs, and 0 indicators.
Presolve time = 0.01 sec. (10.10 ticks)
Found incumbent of value 2147.000000 after 0.03 sec. (23.46 ticks)
Probing fixed 2 vars, tightened 0 bounds.
Probing changed sense of 68 constraints.
Probing time = 0.08 sec. (69.53 ticks)
Tried aggregator 1 time.
Detecting symmetries...
MIP Presolve eliminated 132 rows and 112 columns.
MIP Presolve modified 20 coefficients.
Reduced MIP has 2462 rows, 2508 columns, and 11360 nonzeros.
Reduced MIP has 2508 binaries, 0 generals, 0 SOSs, and 0 indicators.
Presolve time = 0.02 sec. (11.76 ticks)
Probing time = 0.00 sec. (3.88 ticks)
Clique table members: 8005.
MIP emphasis: balance optimality and feasibility.
MIP search method: dynamic search.
Parallel mode: none, using 1 thread.
Root relaxation solution time = 0.02 sec. (24.11 ticks)

        Nodes                                         Cuts/
   Node  Left     Objective  IInf  Best Integer    Best Bound    ItCnt     Gap

*     0+    0                         2147.0000        0.0000           100.00%
      0     0      336.5714    81     2147.0000      336.5714      749   84.32%
*     0+    0                          475.0000      336.5714            29.14%
      0     0      363.4000    81      475.0000      Cuts: 11      845   23.49%
*     0     0      integral     0      373.0000       Cuts: 9      879    0.00%
      0     0        cutoff            373.0000      373.0000      879    0.00%
Elapsed time = 0.20 sec. (190.21 ticks, tree = 0.01 MB, solutions = 3)

Gomory fractional cuts applied:  2

Root node processing (before b&c):
  Real time             =    0.20 sec. (190.40 ticks)
Sequential b&c:
  Real time             =    0.00 sec. (0.00 ticks)
                          ------------
Total (root+branch&cut) =    0.20 sec. (190.40 ticks)
SOLUTION:

x(0,7)[0..1]  = 1
x(7,11)[0..1]  = 1
x(7,13)[0..1]  = 1
x(13,18)[0..1]  = 1
z(7)[0..1]  = 1
z(11)[0..1]  = 1
z(13)[0..1]  = 1
z(18)[0..1]  = 1


CPLEX finished.

CPLEX status: Optimal
Branch-and-Bound nodes: 0
Objective value: 373
CPU time: 0.2

